
Gurobi 9.1.2 (linux64) logging started Thu Apr  7 16:41:38 2022

Changed value of parameter LogFile to /home/DAVIDSON/doflocco/Graph_Pebbling/results/lemke square/ls-bounds/v-(0,6)/ls_sym_v-(6, 0).log
   Prev:   Default: 
Changed value of parameter MIPFocus to 1
   Prev: 0  Min: 0  Max: 3  Default: 0
Changed value of parameter TimeLimit to 10800.0
   Prev: inf  Min: 0.0  Max: inf  Default: inf
Warning: variable name "X[(0, 3),(0, 4)]" has a space
Warning: constraint name "flow-constr-t0-v(6, 0)" has a space
Warning: to let Gurobi read it back, use rlp format
Gurobi Optimizer version 9.1.2 build v9.1.2rc0 (linux64)
Thread count: 32 physical cores, 64 logical processors, using up to 32 threads
Optimize a model with 4855 rows, 4352 columns and 16616 nonzeros
Model fingerprint: 0xbb26ea94
Variable types: 512 continuous, 3840 integer (3840 binary)
Coefficient statistics:
  Matrix range     [1e+00, 7e+04]
  Objective range  [1e-01, 1e-01]
  Bounds range     [1e+00, 3e+04]
  RHS range        [1e+00, 7e+04]
Presolve removed 283 rows and 288 columns
Presolve time: 0.11s
Presolved: 4572 rows, 4064 columns, 22408 nonzeros
Variable types: 512 continuous, 3552 integer (3552 binary)
Found heuristic solution: objective 4214.9999998

Root relaxation: objective 6.400000e+01, 150 iterations, 0.00 seconds

    Nodes    |    Current Node    |     Objective Bounds      |     Work
 Expl Unexpl |  Obj  Depth IntInf | Incumbent    BestBd   Gap | It/Node Time

     0     0   64.00000    0   50 4215.00000   64.00000  98.5%     -    0s
H    0     0                    4212.9999998   64.00000  98.5%     -    0s
H    0     0                    4184.9999998   64.00000  98.5%     -    0s
     0     0   64.00000    0   88 4185.00000   64.00000  98.5%     -    0s
H    0     0                     269.1750000   64.00000  76.2%     -    0s
H    0     0                     154.5750000   64.00000  58.6%     -    0s
     0     0   64.00000    0  104  154.57500   64.00000  58.6%     -    0s
     0     0   64.00000    0   46  154.57500   64.00000  58.6%     -    0s
H    0     0                     143.3500000   64.00000  55.4%     -    0s
     0     0   64.00000    0   47  143.35000   64.00000  55.4%     -    0s
H    0     0                     140.1562500   64.00000  54.3%     -    0s
     0     0   64.00000    0   48  140.15625   64.00000  54.3%     -    0s
H    0     0                     115.2812500   64.00000  44.5%     -    1s
H    0     0                     108.9250000   64.00000  41.2%     -    1s
     0     0   64.00000    0   64  108.92500   64.00000  41.2%     -    1s
H    0     0                     106.0000000   64.00000  39.6%     -    1s
H    0     0                     105.8750000   64.00000  39.6%     -    1s
     0     0   64.00000    0   51  105.87500   64.00000  39.6%     -    1s
     0     0   64.00000    0   59  105.87500   64.00000  39.6%     -    1s
H    0     0                     105.7500000   64.00000  39.5%     -    1s
     0     0   64.00000    0   54  105.75000   64.00000  39.5%     -    1s
H    0     0                      98.7500000   64.00000  35.2%     -    1s
     0     2   64.00000    0   54   98.75000   64.00000  35.2%     -    1s
H    4     6                      98.6562500   64.00000  35.1%   208    1s
H    6     6                      97.5000000   64.00000  34.4%   145    1s
H   45    71                      97.0000000   64.00000  34.0%  26.5    2s
H   47    71                      95.5625000   64.00000  33.0%  25.4    2s
H   48    71                      94.7250000   64.00000  32.4%  24.9    2s
H   57    71                      93.6000000   64.00000  31.6%  21.2    2s
H   62    71                      93.5625000   64.00000  31.6%  19.8    2s
H  109   135                      92.5000000   64.00000  30.8%  14.9    2s
H  110   135                      88.4750000   64.00000  27.7%  14.8    2s

Cutting planes:
  Learned: 1
  Cover: 29
  Implied bound: 41
  Clique: 7
  MIR: 10
  Flow cover: 34
  Relax-and-lift: 16

Explored 141 nodes (13527 simplex iterations) in 2.86 seconds
Thread count was 32 (of 64 available processors)

Solution count 10: 88.475 92.5 93.5625 ... 98.75

Solve interrupted
Best objective 8.847500000000e+01, best bound 6.400000000000e+01, gap 27.6632%

Gurobi 9.1.2 (linux64) logging started Thu Apr  7 17:47:16 2022

Changed value of parameter LogFile to /home/DAVIDSON/doflocco/Graph_Pebbling/results/lemke square/ls-bounds/v-(0,6)/ls_sym_v-(6, 0).log
   Prev:   Default: 
Changed value of parameter MIPFocus to 1
   Prev: 0  Min: 0  Max: 3  Default: 0
Changed value of parameter TimeLimit to 10800.0
   Prev: inf  Min: 0.0  Max: inf  Default: inf
Warning: variable name "X[(1, 3),(1, 1)]" has a space
Warning: constraint name "flow-constr-t0-v(6, 0)" has a space
Warning: to let Gurobi read it back, use rlp format
Gurobi Optimizer version 9.1.2 build v9.1.2rc0 (linux64)
Thread count: 32 physical cores, 64 logical processors, using up to 32 threads
Optimize a model with 4855 rows, 4352 columns and 16616 nonzeros
Model fingerprint: 0x4cdab565
Variable types: 512 continuous, 3840 integer (3840 binary)
Coefficient statistics:
  Matrix range     [1e+00, 7e+04]
  Objective range  [1e-01, 1e-01]
  Bounds range     [1e+00, 3e+04]
  RHS range        [1e+00, 7e+04]
Presolve removed 283 rows and 288 columns
Presolve time: 0.11s
Presolved: 4572 rows, 4064 columns, 22457 nonzeros
Variable types: 512 continuous, 3552 integer (3552 binary)

Root relaxation: objective 6.400000e+01, 147 iterations, 0.01 seconds

    Nodes    |    Current Node    |     Objective Bounds      |     Work
 Expl Unexpl |  Obj  Depth IntInf | Incumbent    BestBd   Gap | It/Node Time

     0     0   64.00000    0   48          -   64.00000      -     -    0s
     0     0   64.00000    0  107          -   64.00000      -     -    0s
     0     0   64.00000    0  108          -   64.00000      -     -    0s
     0     0   64.00000    0   35          -   64.00000      -     -    0s
     0     0   64.00000    0   35          -   64.00000      -     -    0s
     0     0   64.00000    0   38          -   64.00000      -     -    0s
     0     0   64.00000    0   52          -   64.00000      -     -    0s
     0     0   64.00000    0   35          -   64.00000      -     -    0s
     0     0   64.00000    0   38          -   64.00000      -     -    0s
H    0     0                    287467.80000   64.00000   100%     -    0s
     0     0   64.00000    0   49 287467.800   64.00000   100%     -    0s
H    0     0                     124.2499409   64.00000  48.5%     -    0s
H    0     0                     102.5000000   64.00000  37.6%     -    1s
H    0     0                     102.1250000   64.00000  37.3%     -    1s
H    0     2                      96.7812500   64.00000  33.9%     -    1s
     0     2   64.00000    0   44   96.78125   64.00000  33.9%     -    1s
H    1     4                      87.8750000   64.00000  27.2%   372    1s
H   31    58                      86.6562500   64.00000  26.1%  19.5    2s
H   31    58                      85.4875000   64.00000  25.1%  19.5    2s
H   34    58                      85.1250000   64.00000  24.8%  17.9    2s
H   39    58                      84.1944444   64.00000  24.0%  15.7    2s
H   44    58                      82.9375000   64.00000  22.8%  14.1    2s
H  113   120                      82.8750000   64.00000  22.8%   7.8    2s
H  159   178                      82.7500000   64.00000  22.7%   6.1    3s
H  161   178                      82.3750000   64.00000  22.3%   6.0    3s
H  163   178                      81.3125000   64.00000  21.3%   6.0    3s
H  167   178                      79.5000000   64.00000  19.5%   6.0    3s
H  180   178                      78.2500000   64.00000  18.2%   5.8    3s
H  187   178                      77.8125000   64.00000  17.8%   5.6    3s
H  191   210                      77.6875000   64.00000  17.6%   5.5    3s
H  197   210                      77.5625000   64.00000  17.5%   5.4    3s
H  208   210                      77.4375000   64.00000  17.4%   5.6    3s
H  210   210                      77.3125000   64.00000  17.2%   5.7    3s
H  223   240                      74.4531250   64.00000  14.0%   5.6    5s
H  228   240                      73.2500000   64.00000  12.6%   5.5    5s
H  250   240                      73.1644737   64.00000  12.5%   5.2    5s
H  252   240                      71.6250000   64.00000  10.6%   5.2    5s
H  257   270                      70.1666667   64.00000  8.79%   5.1    6s
H  273   270                      69.8203125   64.00000  8.34%   5.2    6s
H  274   270                      69.5000000   64.00000  7.91%   5.2    6s
H  276   270                      69.4687500   64.00000  7.87%   5.1    6s
H  436   752                      69.4375000   64.00000  7.83%   4.7    7s
H  835   782                      69.2500000   64.00000  7.58%   4.1    9s
H  836   782                      68.8750000   64.00000  7.08%   4.1    9s
H  837   782                      68.5000000   64.00000  6.57%   4.1    9s

Cutting planes:
  Cover: 24
  Implied bound: 23
  Clique: 3
  Flow cover: 23
  Relax-and-lift: 5

Explored 1737 nodes (16041 simplex iterations) in 9.90 seconds
Thread count was 32 (of 64 available processors)

Solution count 10: 68.5 68.875 69.25 ... 73.1645

Solve interrupted
Best objective 6.849999999992e+01, best bound 6.400000000000e+01, gap 6.5693%
